207,481
444,369
441,406
207,481
463,564
512,529
477,6
436,-75
444,369
521,325
639,364
1194,240
685,377
677,377
716,454
994,507
1161,406
738,388
536,511
602,909
436,887
427,660
463,564
852,461
1071,406
756,-68
746,-8
756,-68
521,325
441,406
512,529
704,554
471,406
745,605
704,554
787,512
802,318
738,388
868,311
708,321
533,258
607,178
477,6
681,106
620,21
607,178
639,364
716,454
893,618
927,745
803,646
893,618
745,605
602,909
